(set-logic QF_LIA)
(declare-fun x0 () Int)
(declare-fun x1 () Int)
(declare-fun x2 () Int)
(declare-fun x3 () Int)
(declare-fun x4 () Int)
(declare-fun x5 () Int)
(declare-fun x6 () Int)
(declare-fun x7 () Int)
(declare-fun x8 () Int)
(declare-fun x9 () Int)
(declare-fun A1 () Bool)
(declare-fun A2 () Bool)
(declare-fun A3 () Bool)
(declare-fun A4 () Bool)
(declare-fun A5 () Bool)
(declare-fun A6 () Bool)
(declare-fun A7 () Bool)
(declare-fun A8 () Bool)
(declare-fun A9 () Bool)
(assert (let ((.def_0 (* 1 x0))) (let ((.def_1 (* (- 1) x6))) (let ((.def_2 (+ .def_1 .def_0))) (let ((.def_3 (< .def_2 1))) (let ((.def_4 (* (- 1) x4))) (let ((.def_5 (< .def_4 1))) (let ((.def_6 (or .def_5 .def_3))) (let ((.def_7 (not .def_6))) (let ((.def_8 (or A2 A4))) (let ((.def_9 (or .def_8 .def_7))) (let ((.def_10 (* 1 x5))) (let ((.def_11 (+ .def_10 .def_4))) (let ((.def_12 (< .def_11 1))) (let ((.def_13 (not .def_12))) (let ((.def_14 (or .def_13 A8))) (let ((.def_15 (not A1))) (let ((.def_16 (not A8))) (let ((.def_17 (and .def_16 .def_15))) (let ((.def_18 (not .def_17))) (let ((.def_19 (= .def_18 .def_14))) (let ((.def_20 (not .def_19))) (let ((.def_21 (or .def_20 .def_9))) (let ((.def_22 (not .def_21))) (let ((.def_23 (not A7))) (let ((.def_24 (or .def_23 A2))) (let ((.def_25 (* 1 x1))) (let ((.def_26 (< .def_25 (- 1)))) (let ((.def_27 (not .def_26))) (let ((.def_28 (* (- 1) x7))) (let ((.def_29 (* 1 x9))) (let ((.def_30 (+ .def_29 .def_28))) (let ((.def_31 (< .def_30 1))) (let ((.def_32 (or .def_31 .def_27))) (let ((.def_33 (not .def_32))) (let ((.def_34 (or .def_33 .def_24))) (let ((.def_35 (or A3 A6))) (let ((.def_36 (not .def_35))) (let ((.def_37 (* (- 1) x9))) (let ((.def_38 (+ .def_37 .def_1))) (let ((.def_39 (< .def_38 1))) (let ((.def_40 (not .def_39))) (let ((.def_41 (< .def_0 1))) (let ((.def_42 (not .def_41))) (let ((.def_43 (or .def_42 .def_40))) (let ((.def_44 (not .def_43))) (let ((.def_45 (or .def_44 .def_36))) (let ((.def_46 (not .def_45))) (let ((.def_47 (or .def_46 .def_34))) (let ((.def_48 (= .def_47 .def_22))) (let ((.def_49 (not .def_48))) (let ((.def_50 (and A9 .def_15))) (let ((.def_51 (not .def_50))) (let ((.def_52 (or A9 A4))) (let ((.def_53 (not .def_52))) (let ((.def_54 (or .def_53 .def_51))) (let ((.def_55 (not .def_54))) (let ((.def_56 (* 1 x2))) (let ((.def_57 (+ .def_28 .def_56))) (let ((.def_58 (< .def_57 (- 1)))) (let ((.def_59 (and A7 .def_58))) (let ((.def_60 (< .def_25 1))) (let ((.def_61 (* (- 1) x1))) (let ((.def_62 (* (- 1) x0))) (let ((.def_63 (+ .def_62 .def_61))) (let ((.def_64 (< .def_63 (- 1)))) (let ((.def_65 (not .def_64))) (let ((.def_66 (and .def_65 .def_60))) (let ((.def_67 (not .def_66))) (let ((.def_68 (or .def_67 .def_59))) (let ((.def_69 (not .def_68))) (let ((.def_70 (or .def_69 .def_55))) (let ((.def_71 (not .def_70))) (let ((.def_72 (* 1 x4))) (let ((.def_73 (+ .def_0 .def_72))) (let ((.def_74 (< .def_73 1))) (let ((.def_75 (not .def_74))) (let ((.def_76 (= .def_75 A2))) (let ((.def_77 (not .def_76))) (let ((.def_78 (* 1 x8))) (let ((.def_79 (* 1 x6))) (let ((.def_80 (+ .def_79 .def_78))) (let ((.def_81 (< .def_80 1))) (let ((.def_82 (not .def_81))) (let ((.def_83 (* 1 x7))) (let ((.def_84 (+ .def_78 .def_83))) (let ((.def_85 (< .def_84 (- 1)))) (let ((.def_86 (not .def_85))) (let ((.def_87 (= .def_86 .def_82))) (let ((.def_88 (not .def_87))) (let ((.def_89 (or .def_88 .def_77))) (let ((.def_90 (and A4 A9))) (let ((.def_91 (* (- 1) x2))) (let ((.def_92 (+ .def_72 .def_91))) (let ((.def_93 (< .def_92 1))) (let ((.def_94 (* 1 x3))) (let ((.def_95 (+ .def_29 .def_94))) (let ((.def_96 (< .def_95 1))) (let ((.def_97 (and .def_96 .def_93))) (let ((.def_98 (not .def_97))) (let ((.def_99 (or .def_98 .def_90))) (let ((.def_100 (not .def_99))) (let ((.def_101 (= .def_100 .def_89))) (let ((.def_102 (not .def_101))) (let ((.def_103 (or .def_102 .def_71))) (let ((.def_104 (= .def_103 .def_49))) (let ((.def_105 (or .def_41 A2))) (let ((.def_106 (not .def_105))) (let ((.def_107 (+ .def_10 .def_0))) (let ((.def_108 (< .def_107 (- 1)))) (let ((.def_109 (or A6 .def_108))) (let ((.def_110 (= .def_109 .def_106))) (let ((.def_111 (and A3 A7))) (let ((.def_112 (not A4))) (let ((.def_113 (or .def_112 A6))) (let ((.def_114 (and .def_113 .def_111))) (let ((.def_115 (not .def_114))) (let ((.def_116 (= .def_115 .def_110))) (let ((.def_117 (+ .def_91 .def_25))) (let ((.def_118 (< .def_117 1))) (let ((.def_119 (not .def_118))) (let ((.def_120 (and .def_119 A4))) (let ((.def_121 (not .def_120))) (let ((.def_122 (* (- 1) x8))) (let ((.def_123 (< .def_122 (- 1)))) (let ((.def_124 (not .def_123))) (let ((.def_125 (and A4 .def_124))) (let ((.def_126 (or .def_125 .def_121))) (let ((.def_127 (+ .def_10 .def_29))) (let ((.def_128 (< .def_127 (- 1)))) (let ((.def_129 (not .def_128))) (let ((.def_130 (and .def_112 .def_129))) (let ((.def_131 (< .def_79 1))) (let ((.def_132 (or .def_131 .def_15))) (let ((.def_133 (and .def_132 .def_130))) (let ((.def_134 (or .def_133 .def_126))) (let ((.def_135 (and .def_134 .def_116))) (let ((.def_136 (not A5))) (let ((.def_137 (< .def_62 1))) (let ((.def_138 (and .def_137 .def_136))) (let ((.def_139 (* (- 1) x5))) (let ((.def_140 (+ .def_4 .def_139))) (let ((.def_141 (< .def_140 (- 1)))) (let ((.def_142 (+ .def_29 .def_4))) (let ((.def_143 (< .def_142 (- 1)))) (let ((.def_144 (not .def_143))) (let ((.def_145 (and .def_144 .def_141))) (let ((.def_146 (not .def_145))) (let ((.def_147 (and .def_146 .def_138))) (let ((.def_148 (< .def_10 1))) (let ((.def_149 (+ .def_83 .def_4))) (let ((.def_150 (< .def_149 1))) (let ((.def_151 (or .def_150 .def_148))) (let ((.def_152 (not .def_151))) (let ((.def_153 (+ .def_79 .def_94))) (let ((.def_154 (< .def_153 1))) (let ((.def_155 (or .def_136 .def_154))) (let ((.def_156 (not .def_155))) (let ((.def_157 (= .def_156 .def_152))) (let ((.def_158 (not .def_157))) (let ((.def_159 (or .def_158 .def_147))) (let ((.def_160 (not .def_159))) (let ((.def_161 (< .def_83 (- 1)))) (let ((.def_162 (and A9 .def_161))) (let ((.def_163 (not .def_162))) (let ((.def_164 (+ .def_0 .def_29))) (let ((.def_165 (< .def_164 1))) (let ((.def_166 (and A5 .def_165))) (let ((.def_167 (not .def_166))) (let ((.def_168 (and .def_167 .def_163))) (let ((.def_169 (not .def_168))) (let ((.def_170 (not A6))) (let ((.def_171 (and .def_170 .def_16))) (let ((.def_172 (+ .def_25 .def_72))) (let ((.def_173 (< .def_172 (- 1)))) (let ((.def_174 (not .def_173))) (let ((.def_175 (and A5 .def_174))) (let ((.def_176 (or .def_175 .def_171))) (let ((.def_177 (or .def_176 .def_169))) (let ((.def_178 (not .def_177))) (let ((.def_179 (or .def_178 .def_160))) (let ((.def_180 (or .def_179 .def_135))) (let ((.def_181 (not .def_180))) (let ((.def_182 (and .def_181 .def_104))) (let ((.def_183 (not .def_182))) (let ((.def_184 (<= x9 1))) (let ((.def_185 (<= 0 x9))) (let ((.def_186 (<= x8 1))) (let ((.def_187 (<= 0 x8))) (let ((.def_188 (<= x7 1))) (let ((.def_189 (<= 0 x7))) (let ((.def_190 (<= x6 1))) (let ((.def_191 (<= 0 x6))) (let ((.def_192 (<= x5 1))) (let ((.def_193 (<= 0 x5))) (let ((.def_194 (<= x4 1))) (let ((.def_195 (<= 0 x4))) (let ((.def_196 (<= x3 1))) (let ((.def_197 (<= 0 x3))) (let ((.def_198 (<= x2 1))) (let ((.def_199 (<= 0 x2))) (let ((.def_200 (<= x1 1))) (let ((.def_201 (<= 0 x1))) (let ((.def_202 (<= x0 1))) (let ((.def_203 (<= 0 x0))) (let ((.def_204 (and .def_203 .def_202 .def_201 .def_200 .def_199 .def_198 .def_197 .def_196 .def_195 .def_194 .def_193 .def_192 .def_191 .def_190 .def_189 .def_188 .def_187 .def_186 .def_185 .def_184 .def_183))) .def_204))))))))))))))))))))))))))))))))))))))))))))))))))))))))))))))))))))))))))))))))))))))))))))))))))))))))))))))))))))))))))))))))))))))))))))))))))))))))))))))))))))))))))))))))))))))))))))))))))))))))))))))
(check-sat)
